% From ECLiPSe's example domino.ecl
r = 7;
c = 8;
high = 6;
board = array2d(1..r, 1..c, 
     [
      3,1,2,6,6,1,2,2,
      3,4,1,5,3,0,3,6,
      5,6,6,1,2,4,5,0,
      5,6,4,1,3,3,0,0,
      6,1,0,6,3,2,4,0,
      4,1,5,2,4,3,5,5,
      4,1,0,2,4,5,2,0
    ])
;
